c pcminimize - minimizing a CNF with respect to propagation completeness by iterative removing of absorbed clauses.
c Petr Kucera, 2016-2021
c Version 2.7, revision 59, git hash 4910a71, date 2024-07-16 20:17:42 +0200
p cnf 951 3065
-204 -252 0
251 -252 0
252 -253 0
250 -253 0
254 -255 0
255 -256 0
-250 -256 0
253 256 -257 0
258 -259 0
2 -259 0
-202 -260 0
-2 -260 0
259 260 -261 0
261 -262 0
195 -262 0
258 -263 0
263 -264 0
-195 -264 0
262 264 -265 0
257 -266 0
265 -266 0
266 -267 0
28 -267 0
-195 -268 0
-250 -268 0
258 -269 0
254 -269 0
268 -270 0
269 -270 0
270 -271 0
-28 -271 0
267 271 -272 0
273 -275 0
274 -275 0
141 -276 0
275 -276 0
276 -277 0
115 -277 0
274 -278 0
141 -278 0
47 -279 0
-141 -279 0
278 279 -280 0
280 -281 0
33 -281 0
274 -283 0
282 -283 0
283 -284 0
-33 -284 0
281 284 -285 0
285 -286 0
-115 -286 0
277 286 -287 0
287 -288 0
217 -288 0
285 -289 0
-115 -289 0
289 -290 0
-217 -290 0
288 290 -291 0
117 -292 0
21 -292 0
293 -294 0
-21 -294 0
292 294 -295 0
296 -297 0
197 -297 0
-124 -298 0
-197 -298 0
297 298 -299 0
-6 -300 0
8 -300 0
-9 -300 0
12 -300 0
14 -300 0
-18 -300 0
23 -300 0
-24 -300 0
25 -300 0
31 -300 0
-32 -300 0
-39 -300 0
40 -300 0
42 -300 0
-43 -300 0
-46 -300 0
-48 -300 0
50 -300 0
52 -300 0
53 -300 0
-54 -300 0
-57 -300 0
-61 -300 0
-63 -300 0
-66 -300 0
70 -300 0
75 -300 0
76 -300 0
77 -300 0
78 -300 0
79 -300 0
80 -300 0
-90 -300 0
92 -300 0
93 -300 0
-97 -300 0
102 -300 0
-116 -300 0
118 -300 0
-125 -300 0
-127 -300 0
-142 -300 0
143 -300 0
-147 -300 0
148 -300 0
-151 -300 0
156 -300 0
-159 -300 0
-160 -300 0
-161 -300 0
-167 -300 0
-170 -300 0
-174 -300 0
-180 -300 0
-182 -300 0
-185 -300 0
190 -300 0
191 -300 0
-192 -300 0
-196 -300 0
-201 -300 0
207 -300 0
-209 -300 0
212 -300 0
215 -300 0
220 -300 0
223 -300 0
228 -300 0
238 -300 0
-239 -300 0
-240 -300 0
243 -300 0
-245 -300 0
246 -300 0
247 -300 0
301 -308 0
302 -308 0
303 -308 0
304 -308 0
305 -308 0
306 -308 0
307 -308 0
272 -309 0
291 -309 0
295 -309 0
299 -309 0
300 -309 0
308 -309 0
309 -310 0
-41 -311 0
310 -312 0
311 -312 0
312 -313 0
313 -314 0
89 -314 0
314 -315 0
-130 -316 0
-140 -316 0
315 -317 0
316 -317 0
317 -318 0
7 -319 0
13 -319 0
27 -319 0
38 -319 0
-58 -319 0
73 -319 0
95 -319 0
-101 -319 0
106 -319 0
-113 -319 0
-114 -319 0
-120 -319 0
-122 -319 0
-135 -319 0
-144 -319 0
155 -319 0
172 -319 0
179 -319 0
183 -319 0
-189 -319 0
198 -319 0
-206 -319 0
-210 -319 0
216 -319 0
227 -319 0
244 -319 0
-248 -319 0
318 -320 0
319 -320 0
320 -321 0
129 -321 0
-65 -322 0
-84 -322 0
-88 -322 0
321 -323 0
322 -323 0
323 -324 0
-162 -324 0
324 -326 0
325 -326 0
326 -327 0
-19 -328 0
-62 -328 0
74 -328 0
-163 -328 0
-171 -328 0
-205 -328 0
327 -329 0
328 -329 0
329 -330 0
219 -330 0
-71 -331 0
138 -331 0
330 -332 0
331 -332 0
332 -333 0
-242 -333 0
-87 -334 0
-164 -334 0
333 -335 0
334 -335 0
335 -336 0
72 -336 0
-103 -337 0
336 -338 0
337 -338 0
338 -339 0
36 -339 0
339 -340 0
340 -341 0
29 -341 0
20 -342 0
-175 -342 0
218 -342 0
341 -343 0
342 -343 0
343 -344 0
344 -345 0
345 -346 0
346 -347 0
-184 -347 0
347 -348 0
121 -348 0
348 -349 0
134 -349 0
349 -350 0
350 -351 0
64 -351 0
351 -353 0
352 -353 0
353 -354 0
96 -354 0
-63 -355 0
80 -355 0
63 -356 0
-80 -356 0
355 356 -357 0
190 -358 0
228 -358 0
358 -359 0
79 -359 0
228 -360 0
190 -360 0
361 -362 0
-190 -362 0
360 362 -363 0
363 -364 0
-79 -364 0
359 364 -365 0
365 -366 0
215 -366 0
-79 -367 0
-190 -367 0
-228 -367 0
367 -368 0
-215 -368 0
366 368 -369 0
46 -370 0
-65 -370 0
-97 -370 0
218 -370 0
357 -371 0
369 -371 0
370 -371 0
371 -372 0
20 -372 0
-65 -373 0
218 -373 0
374 -375 0
-218 -375 0
373 375 -376 0
377 -378 0
46 -378 0
97 -379 0
-46 -379 0
378 379 -380 0
215 -381 0
228 -381 0
380 -382 0
381 -382 0
382 -384 0
383 -384 0
384 -385 0
190 -385 0
-46 -386 0
97 -386 0
386 -387 0
79 -387 0
380 -388 0
-79 -388 0
387 388 -389 0
361 -390 0
215 -390 0
-228 -391 0
-215 -391 0
390 391 -392 0
389 -393 0
392 -393 0
393 -394 0
-190 -394 0
385 394 -395 0
-63 -396 0
80 -396 0
376 -397 0
395 -397 0
396 -397 0
397 -398 0
-20 -398 0
372 398 -399 0
304 -400 0
92 -400 0
249 -401 0
-92 -401 0
400 401 -402 0
6 -403 0
-179 -403 0
210 -403 0
402 -404 0
403 -404 0
404 -405 0
32 -405 0
249 -406 0
179 -406 0
304 -407 0
-179 -407 0
406 407 -408 0
210 -409 0
6 -409 0
410 -411 0
-6 -411 0
409 411 -412 0
408 -413 0
412 -413 0
92 -413 0
413 -414 0
-32 -414 0
405 414 -415 0
416 -417 0
243 -417 0
48 -418 0
-243 -418 0
417 418 -419 0
33 -420 0
185 -420 0
273 -421 0
-185 -421 0
420 421 -422 0
419 -423 0
422 -423 0
423 -424 0
254 -424 0
424 -425 0
156 -425 0
33 -426 0
254 -426 0
426 -427 0
185 -427 0
204 -428 0
273 -428 0
428 -429 0
-185 -429 0
427 429 -430 0
48 -431 0
-243 -431 0
430 -432 0
431 -432 0
432 -433 0
-156 -433 0
425 433 -434 0
27 -435 0
172 -435 0
399 -436 0
415 -436 0
434 -436 0
435 -436 0
436 -437 0
183 -437 0
402 -438 0
172 -438 0
439 -440 0
304 -440 0
440 -441 0
-172 -441 0
438 441 -442 0
442 -443 0
403 -443 0
443 -444 0
32 -444 0
408 -446 0
412 -446 0
92 -446 0
445 -446 0
446 -447 0
-32 -447 0
444 447 -448 0
156 -449 0
254 -449 0
449 -450 0
416 -450 0
450 -451 0
243 -451 0
452 -453 0
204 -453 0
156 -454 0
-204 -454 0
453 454 -455 0
455 -456 0
48 -456 0
456 -457 0
-243 -457 0
451 457 -458 0
-20 -459 0
-27 -459 0
-33 -459 0
-63 -459 0
80 -459 0
-185 -459 0
-190 -459 0
-215 -459 0
-218 -459 0
-228 -459 0
389 -460 0
448 -460 0
458 -460 0
459 -460 0
374 -460 0
460 -461 0
-183 -461 0
437 461 -462 0
21 -463 0
-148 -463 0
463 -464 0
239 -464 0
-21 -465 0
148 -465 0
466 -467 0
-148 -467 0
465 467 -468 0
468 -469 0
-239 -469 0
464 469 -470 0
77 -471 0
-117 -471 0
-144 -471 0
-182 -471 0
-192 -471 0
462 -472 0
470 -472 0
471 -472 0
301 -472 0
472 -473 0
196 -473 0
21 -474 0
239 -474 0
466 -475 0
-239 -475 0
474 475 -476 0
16 -477 0
-32 -477 0
-77 -477 0
92 -477 0
117 -477 0
192 -477 0
-204 -477 0
408 -479 0
412 -479 0
476 -479 0
477 -479 0
478 -479 0
479 -480 0
182 -480 0
6 -481 0
77 -481 0
-117 -481 0
-179 -481 0
-192 -481 0
210 -481 0
470 -482 0
402 -482 0
481 -482 0
301 -482 0
482 -483 0
32 -483 0
117 -484 0
148 -484 0
293 -485 0
-148 -485 0
484 485 -486 0
486 -487 0
21 -487 0
487 -488 0
239 -488 0
295 -489 0
148 -489 0
466 -490 0
293 -490 0
490 -491 0
-148 -491 0
489 491 -492 0
492 -493 0
-239 -493 0
488 493 -494 0
494 -495 0
-192 -495 0
495 -496 0
301 -496 0
496 -497 0
77 -497 0
16 -498 0
117 -498 0
476 -499 0
498 -499 0
478 -499 0
499 -501 0
500 -501 0
501 -502 0
-77 -502 0
497 502 -503 0
408 -504 0
503 -504 0
412 -504 0
92 -504 0
504 -505 0
-32 -505 0
483 505 -506 0
506 -507 0
254 -507 0
507 -508 0
-182 -508 0
480 508 -509 0
510 -511 0
144 -511 0
-144 -512 0
511 512 -513 0
509 -514 0
395 -514 0
513 -514 0
422 -514 0
435 -514 0
514 -515 0
183 -515 0
513 -516 0
172 -516 0
178 -518 0
517 -518 0
518 -519 0
-172 -519 0
516 519 -520 0
408 -521 0
520 -521 0
412 -521 0
476 -521 0
477 -521 0
478 -521 0
521 -522 0
182 -522 0
506 -523 0
513 -523 0
523 -524 0
172 -524 0
16 -525 0
-77 -525 0
525 -526 0
192 -526 0
301 -527 0
77 -527 0
16 -528 0
-77 -528 0
527 528 -529 0
529 -530 0
-192 -530 0
526 530 -531 0
-32 -532 0
92 -532 0
408 -533 0
531 -533 0
412 -533 0
476 -533 0
532 -533 0
533 -534 0
478 -534 0
534 -535 0
117 -535 0
403 -536 0
304 -536 0
536 -537 0
439 -537 0
537 -538 0
32 -538 0
408 -539 0
412 -539 0
92 -539 0
539 -540 0
-32 -540 0
538 540 -541 0
77 -542 0
-192 -542 0
541 -543 0
470 -543 0
542 -543 0
301 -543 0
543 -544 0
-117 -544 0
535 544 -545 0
545 -546 0
178 -546 0
517 -546 0
546 -547 0
-172 -547 0
524 547 -548 0
548 -549 0
254 -549 0
549 -550 0
-182 -550 0
522 550 -551 0
-27 -552 0
-33 -552 0
-185 -552 0
-190 -552 0
-215 -552 0
-228 -552 0
551 -553 0
389 -553 0
552 -553 0
553 -554 0
-183 -554 0
515 554 -555 0
-20 -556 0
-63 -556 0
80 -556 0
156 -556 0
-218 -556 0
243 -556 0
374 -557 0
416 -557 0
555 -558 0
556 -558 0
557 -558 0
558 -559 0
-196 -559 0
473 559 -560 0
561 -562 0
247 -562 0
-102 -563 0
-247 -563 0
562 563 -564 0
-18 -565 0
-52 -565 0
-54 -565 0
-58 -565 0
-62 -565 0
75 -565 0
-147 -565 0
-164 -565 0
-209 -565 0
-212 -565 0
216 -565 0
566 -569 0
305 -569 0
567 -569 0
568 -569 0
560 -570 0
564 -570 0
565 -570 0
569 -570 0
570 -571 0
-174 -571 0
571 -572 0
103 -572 0
228 -574 0
573 -574 0
574 -575 0
190 -575 0
-46 -576 0
361 -576 0
576 -577 0
-190 -577 0
575 577 -578 0
578 -579 0
79 -579 0
363 -580 0
573 -580 0
580 -581 0
-79 -581 0
579 581 -582 0
582 -583 0
215 -583 0
-46 -584 0
79 -584 0
573 -585 0
-79 -585 0
584 585 -586 0
-190 -587 0
-228 -587 0
586 -588 0
587 -588 0
588 -589 0
-215 -589 0
583 589 -590 0
-20 -591 0
-63 -591 0
80 -591 0
590 -592 0
591 -592 0
592 -593 0
97 -593 0
357 -594 0
20 -594 0
396 -595 0
-20 -595 0
594 595 -596 0
596 -597 0
369 -597 0
46 -597 0
597 -598 0
-97 -598 0
593 598 -599 0
-179 -600 0
304 -600 0
600 -601 0
32 -601 0
408 -602 0
-32 -602 0
601 602 -603 0
603 -604 0
92 -604 0
32 -605 0
-179 -605 0
249 -605 0
605 -606 0
-92 -606 0
604 606 -607 0
607 -608 0
6 -608 0
408 -609 0
532 -609 0
609 -610 0
-6 -610 0
608 610 -611 0
-15 -612 0
27 -612 0
-65 -612 0
77 -612 0
-117 -612 0
-144 -612 0
172 -612 0
-182 -612 0
183 -612 0
-192 -612 0
196 -612 0
599 -613 0
434 -613 0
611 -613 0
470 -613 0
612 -613 0
301 -613 0
613 -614 0
218 -614 0
-182 -615 0
204 -615 0
616 -617 0
-204 -617 0
615 617 -618 0
618 -619 0
525 -619 0
619 -620 0
192 -620 0
529 -621 0
-182 -621 0
254 -621 0
621 -622 0
-192 -622 0
620 622 -623 0
-32 -624 0
92 -624 0
156 -624 0
-196 -624 0
243 -624 0
625 -626 0
517 -626 0
305 -626 0
416 -626 0
408 -627 0
623 -627 0
422 -627 0
476 -627 0
624 -627 0
626 -627 0
627 -628 0
478 -628 0
628 -629 0
117 -629 0
-196 -630 0
305 -630 0
630 -631 0
144 -631 0
-15 -632 0
196 -632 0
305 -633 0
-196 -633 0
632 633 -634 0
634 -635 0
-144 -635 0
631 635 -636 0
636 -637 0
422 -637 0
156 -637 0
254 -637 0
637 -638 0
416 -638 0
638 -639 0
243 -639 0
33 -640 0
452 -640 0
254 -640 0
640 -641 0
185 -641 0
455 -642 0
273 -642 0
642 -643 0
-185 -643 0
641 643 -644 0
-15 -645 0
48 -645 0
-144 -645 0
196 -645 0
644 -646 0
645 -646 0
646 -647 0
-243 -647 0
639 647 -648 0
77 -649 0
-182 -649 0
-192 -649 0
611 -650 0
648 -650 0
470 -650 0
649 -650 0
301 -650 0
650 -651 0
-117 -651 0
629 651 -652 0
652 -653 0
395 -653 0
435 -653 0
653 -654 0
183 -654 0
625 -655 0
445 -655 0
517 -655 0
305 -655 0
416 -655 0
408 -656 0
623 -656 0
476 -656 0
624 -656 0
655 -656 0
656 -657 0
478 -657 0
657 -658 0
117 -658 0
6 -659 0
-179 -659 0
442 -660 0
659 -660 0
660 -661 0
32 -661 0
408 -662 0
92 -662 0
445 -662 0
662 -663 0
625 -663 0
663 -664 0
-32 -664 0
661 664 -665 0
636 -666 0
156 -666 0
254 -666 0
666 -667 0
416 -667 0
667 -668 0
243 -668 0
455 -669 0
645 -669 0
669 -670 0
-243 -670 0
668 670 -671 0
665 -672 0
671 -672 0
470 -672 0
649 -672 0
301 -672 0
672 -673 0
-117 -673 0
658 673 -674 0
674 -675 0
389 -675 0
552 -675 0
675 -676 0
-183 -676 0
654 676 -677 0
677 -678 0
591 -678 0
678 -679 0
374 -679 0
679 -680 0
-218 -680 0
614 680 -681 0
-18 -682 0
-52 -682 0
-54 -682 0
-58 -682 0
-62 -682 0
75 -682 0
-102 -682 0
-147 -682 0
-164 -682 0
-174 -682 0
178 -682 0
-209 -682 0
-212 -682 0
216 -682 0
-247 -682 0
566 -683 0
567 -683 0
410 -683 0
568 -683 0
681 -684 0
682 -684 0
683 -684 0
684 -685 0
-103 -685 0
572 685 -686 0
9 -687 0
12 -687 0
14 -687 0
-19 -687 0
23 -687 0
25 -687 0
-31 -687 0
-38 -687 0
-39 -687 0
-41 -687 0
-42 -687 0
-43 -687 0
47 -687 0
50 -687 0
53 -687 0
70 -687 0
73 -687 0
78 -687 0
-84 -687 0
-90 -687 0
93 -687 0
-111 -687 0
113 -687 0
-115 -687 0
116 -687 0
-120 -687 0
-127 -687 0
-130 -687 0
132 -687 0
-133 -687 0
-140 -687 0
141 -687 0
143 -687 0
-159 -687 0
160 -687 0
161 -687 0
-163 -687 0
171 -687 0
180 -687 0
202 -687 0
207 -687 0
-227 -687 0
230 -687 0
-238 -687 0
246 -687 0
-248 -687 0
688 -690 0
303 -690 0
296 -690 0
689 -690 0
686 -691 0
687 -691 0
690 -691 0
691 -692 0
-129 -692 0
57 -693 0
67 -693 0
122 -693 0
-155 -693 0
-201 -693 0
240 -693 0
692 -694 0
693 -694 0
694 -695 0
114 -696 0
175 -696 0
695 -697 0
696 -697 0
697 -698 0
698 -699 0
72 -699 0
-71 -700 0
-142 -700 0
-217 -700 0
699 -701 0
700 -701 0
701 -702 0
36 -702 0
-8 -703 0
13 -703 0
-24 -703 0
-66 -703 0
-74 -703 0
76 -703 0
86 -703 0
-87 -703 0
-88 -703 0
95 -703 0
101 -703 0
106 -703 0
-125 -703 0
131 -703 0
135 -703 0
138 -703 0
-151 -703 0
-162 -703 0
167 -703 0
177 -703 0
-191 -703 0
198 -703 0
205 -703 0
206 -703 0
-219 -703 0
220 -703 0
223 -703 0
-242 -703 0
-250 -703 0
702 -704 0
703 -704 0
704 -705 0
-184 -705 0
121 -706 0
-244 -706 0
705 -707 0
706 -707 0
707 -708 0
134 -708 0
19 -710 0
709 -710 0
710 -711 0
169 -711 0
712 -713 0
713 -714 0
-169 -714 0
711 714 -715 0
466 -716 0
303 -716 0
716 -717 0
220 -717 0
21 -718 0
-68 -718 0
718 -719 0
-220 -719 0
717 719 -720 0
-147 -721 0
172 -721 0
720 -722 0
721 -722 0
302 -722 0
722 -723 0
63 -723 0
724 -725 0
177 -725 0
-147 -726 0
-177 -726 0
725 726 -727 0
727 -728 0
172 -728 0
147 -729 0
177 -729 0
729 -730 0
-172 -730 0
728 730 -731 0
303 -732 0
220 -732 0
-68 -733 0
-220 -733 0
732 733 -734 0
731 -735 0
734 -735 0
21 -735 0
735 -736 0
-63 -736 0
723 736 -737 0
18 -739 0
296 -739 0
738 -739 0
739 -740 0
205 -740 0
738 -741 0
124 -741 0
215 -742 0
-124 -742 0
741 742 -743 0
743 -745 0
744 -745 0
745 -746 0
-205 -746 0
740 746 -747 0
-14 -748 0
43 -748 0
749 -750 0
-43 -750 0
748 750 -751 0
-6 -752 0
-8 -752 0
-9 -752 0
12 -752 0
13 -752 0
16 -752 0
20 -752 0
23 -752 0
-24 -752 0
-25 -752 0
27 -752 0
-28 -752 0
31 -752 0
-32 -752 0
33 -752 0
38 -752 0
39 -752 0
-42 -752 0
46 -752 0
47 -752 0
50 -752 0
52 -752 0
53 -752 0
-54 -752 0
-56 -752 0
-57 -752 0
58 -752 0
62 -752 0
65 -752 0
70 -752 0
-73 -752 0
-75 -752 0
-76 -752 0
77 -752 0
78 -752 0
-80 -752 0
84 -752 0
87 -752 0
90 -752 0
92 -752 0
93 -752 0
-97 -752 0
101 -752 0
-102 -752 0
103 -752 0
106 -752 0
-113 -752 0
114 -752 0
-115 -752 0
116 -752 0
-117 -752 0
-118 -752 0
120 -752 0
122 -752 0
125 -752 0
-127 -752 0
-129 -752 0
-130 -752 0
-135 -752 0
-138 -752 0
-140 -752 0
141 -752 0
142 -752 0
143 -752 0
-144 -752 0
-148 -752 0
-151 -752 0
-155 -752 0
156 -752 0
-159 -752 0
-160 -752 0
161 -752 0
163 -752 0
164 -752 0
-167 -752 0
171 -752 0
174 -752 0
175 -752 0
-179 -752 0
180 -752 0
-182 -752 0
183 -752 0
185 -752 0
-191 -752 0
-192 -752 0
-195 -752 0
196 -752 0
-198 -752 0
201 -752 0
202 -752 0
204 -752 0
206 -752 0
207 -752 0
-209 -752 0
-210 -752 0
-212 -752 0
-216 -752 0
218 -752 0
-223 -752 0
-227 -752 0
238 -752 0
-239 -752 0
240 -752 0
241 -752 0
244 -752 0
-246 -752 0
-247 -752 0
248 -752 0
-249 -752 0
-250 -752 0
753 -755 0
306 -755 0
754 -755 0
715 -756 0
737 -756 0
365 -756 0
747 -756 0
751 -756 0
419 -756 0
752 -756 0
755 -756 0
756 -757 0
71 -758 0
757 -759 0
758 -759 0
759 -760 0
242 -760 0
-15 -761 0
41 -761 0
-74 -761 0
-95 -761 0
-121 -761 0
189 -761 0
-217 -761 0
-219 -761 0
760 -762 0
761 -762 0
762 -763 0
763 -765 0
764 -765 0
765 -766 0
-72 -766 0
766 -767 0
36 -767 0
-137 -768 0
162 -768 0
767 -769 0
768 -769 0
769 -770 0
184 -770 0
770 -772 0
771 -772 0
772 -773 0
773 -774 0
-134 -774 0
708 774 -775 0
775 -776 0
-29 -777 0
776 -778 0
777 -778 0
778 -779 0
779 -780 0
-96 -780 0
354 780 -781 0
781 -782 0
782 -783 0
203 -784 0
50 -785 0
118 -785 0
209 -785 0
785 -786 0
164 -786 0
50 -787 0
209 -787 0
788 -789 0
-209 -789 0
787 789 -790 0
790 -791 0
118 -791 0
-209 -792 0
788 -792 0
792 -793 0
-118 -793 0
791 793 -794 0
794 -795 0
-164 -795 0
786 795 -796 0
75 -797 0
117 -797 0
797 -798 0
21 -798 0
293 -799 0
75 -799 0
-117 -800 0
-75 -800 0
799 800 -801 0
801 -802 0
-21 -802 0
798 802 -803 0
804 -805 0
167 -805 0
-24 -806 0
-167 -806 0
805 806 -807 0
807 -808 0
33 -808 0
808 -809 0
185 -809 0
807 -810 0
33 -810 0
-24 -812 0
811 -812 0
812 -813 0
-33 -813 0
810 813 -814 0
814 -815 0
-185 -815 0
809 815 -816 0
-9 -817 0
-13 -817 0
-17 -817 0
-18 -817 0
-19 -817 0
20 -817 0
-23 -817 0
27 -817 0
-28 -817 0
-31 -817 0
38 -817 0
39 -817 0
-41 -817 0
42 -817 0
-43 -817 0
46 -817 0
47 -817 0
54 -817 0
57 -817 0
62 -817 0
63 -817 0
-65 -817 0
-66 -817 0
-68 -817 0
-73 -817 0
74 -817 0
-76 -817 0
-77 -817 0
-78 -817 0
-80 -817 0
-88 -817 0
93 -817 0
-97 -817 0
-102 -817 0
-106 -817 0
-113 -817 0
114 -817 0
115 -817 0
-116 -817 0
120 -817 0
-125 -817 0
129 -817 0
135 -817 0
-138 -817 0
-140 -817 0
141 -817 0
-142 -817 0
-143 -817 0
-144 -817 0
-147 -817 0
148 -817 0
151 -817 0
155 -817 0
156 -817 0
159 -817 0
-163 -817 0
171 -817 0
172 -817 0
-173 -817 0
175 -817 0
-177 -817 0
-179 -817 0
180 -817 0
-182 -817 0
183 -817 0
-190 -817 0
-192 -817 0
-194 -817 0
-198 -817 0
201 -817 0
202 -817 0
204 -817 0
205 -817 0
-207 -817 0
208 -817 0
-213 -817 0
215 -817 0
217 -817 0
219 -817 0
220 -817 0
223 -817 0
-228 -817 0
-234 -817 0
-240 -817 0
-244 -817 0
-246 -817 0
-247 -817 0
248 -817 0
-249 -817 0
818 -823 0
416 -823 0
819 -823 0
749 -823 0
567 -823 0
305 -823 0
820 -823 0
821 -823 0
822 -823 0
796 -824 0
803 -824 0
816 -824 0
817 -824 0
823 -824 0
824 -825 0
242 -825 0
-8 -826 0
16 -826 0
-25 -826 0
-32 -826 0
-53 -826 0
58 -826 0
-59 -826 0
-70 -826 0
-71 -826 0
-79 -826 0
-87 -826 0
90 -826 0
-103 -826 0
130 -826 0
133 -826 0
174 -826 0
-189 -826 0
191 -826 0
-196 -826 0
-210 -826 0
212 -826 0
218 -826 0
227 -826 0
243 -826 0
825 -827 0
826 -827 0
827 -828 0
-36 -828 0
828 -829 0
829 -830 0
29 -830 0
-6 -831 0
-95 -831 0
-101 -831 0
-206 -831 0
830 -832 0
831 -832 0
832 -833 0
-34 -834 0
-72 -834 0
-81 -834 0
162 -834 0
-216 -834 0
-238 -834 0
833 -835 0
834 -835 0
835 -836 0
836 -837 0
-239 -837 0
837 -838 0
184 -838 0
12 -839 0
52 -839 0
92 -839 0
121 -839 0
161 -839 0
838 -840 0
839 -840 0
840 -841 0
134 -841 0
-114 -842 0
106 -842 0
843 -844 0
-106 -844 0
842 844 -845 0
845 -846 0
8 -846 0
-106 -847 0
114 -847 0
847 -848 0
-8 -848 0
846 848 -849 0
12 -850 0
-75 -850 0
-117 -850 0
140 -850 0
850 -852 0
851 -852 0
852 -853 0
32 -853 0
140 -854 0
198 -854 0
855 -856 0
-198 -856 0
854 856 -857 0
858 -859 0
12 -859 0
75 -860 0
-12 -860 0
859 860 -861 0
857 -862 0
861 -862 0
862 -863 0
293 -863 0
863 -864 0
-32 -864 0
853 864 -865 0
-15 -866 0
-113 -866 0
-217 -866 0
249 -866 0
866 -867 0
175 -867 0
15 -868 0
217 -868 0
-249 -868 0
868 -869 0
113 -869 0
-249 -870 0
305 -870 0
870 -871 0
217 -871 0
-15 -872 0
304 -872 0
872 -873 0
-217 -873 0
871 873 -874 0
874 -875 0
-113 -875 0
869 875 -876 0
876 -877 0
-175 -877 0
867 877 -878 0
-9 -879 0
865 -880 0
878 -880 0
879 -880 0
568 -880 0
880 -882 0
881 -882 0
882 -883 0
52 -883 0
249 -884 0
175 -884 0
304 -885 0
-175 -885 0
884 885 -886 0
-12 -887 0
-15 -887 0
-32 -887 0
75 -887 0
-113 -887 0
140 -887 0
-164 -887 0
198 -887 0
-217 -887 0
293 -889 0
888 -889 0
568 -889 0
886 -890 0
887 -890 0
889 -890 0
890 -891 0
-52 -891 0
883 891 -892 0
-93 -893 0
122 -893 0
894 -895 0
-122 -895 0
893 895 -896 0
-24 -897 0
18 -897 0
804 -898 0
-18 -898 0
897 898 -899 0
-88 -900 0
250 -900 0
754 -901 0
-250 -901 0
900 901 -902 0
3 -903 0
-5 -903 0
-6 -903 0
-13 -903 0
14 -903 0
16 -903 0
20 -903 0
21 -903 0
23 -903 0
-25 -903 0
26 -903 0
27 -903 0
-28 -903 0
29 -903 0
-31 -903 0
33 -903 0
-36 -903 0
-38 -903 0
-39 -903 0
-43 -903 0
46 -903 0
47 -903 0
-48 -903 0
50 -903 0
54 -903 0
-57 -903 0
58 -903 0
62 -903 0
63 -903 0
-65 -903 0
66 -903 0
68 -903 0
-70 -903 0
71 -903 0
-72 -903 0
-73 -903 0
74 -903 0
-76 -903 0
-77 -903 0
-78 -903 0
-79 -903 0
-80 -903 0
-83 -903 0
90 -903 0
91 -903 0
92 -903 0
-95 -903 0
-97 -903 0
-98 -903 0
-101 -903 0
-102 -903 0
-103 -903 0
105 -903 0
109 -903 0
-115 -903 0
-116 -903 0
120 -903 0
-121 -903 0
-125 -903 0
127 -903 0
-128 -903 0
-129 -903 0
130 -903 0
133 -903 0
135 -903 0
136 -903 0
138 -903 0
-141 -903 0
142 -903 0
-143 -903 0
-144 -903 0
146 -903 0
-147 -903 0
-148 -903 0
151 -903 0
-154 -903 0
155 -903 0
156 -903 0
159 -903 0
-160 -903 0
-161 -903 0
-163 -903 0
165 -903 0
167 -903 0
-169 -903 0
-171 -903 0
172 -903 0
-177 -903 0
179 -903 0
180 -903 0
-182 -903 0
183 -903 0
185 -903 0
-189 -903 0
190 -903 0
191 -903 0
192 -903 0
195 -903 0
-196 -903 0
201 -903 0
202 -903 0
204 -903 0
205 -903 0
-206 -903 0
-207 -903 0
-209 -903 0
-210 -903 0
212 -903 0
-214 -903 0
215 -903 0
-216 -903 0
218 -903 0
219 -903 0
-220 -903 0
-223 -903 0
227 -903 0
228 -903 0
-231 -903 0
-235 -903 0
-237 -903 0
-238 -903 0
-240 -903 0
-242 -903 0
243 -903 0
-244 -903 0
246 -903 0
-247 -903 0
248 -903 0
712 -907 0
818 -907 0
904 -907 0
905 -907 0
906 -907 0
849 -908 0
892 -908 0
896 -908 0
899 -908 0
902 -908 0
903 -908 0
907 -908 0
908 -909 0
41 -910 0
-53 -910 0
162 -910 0
174 -910 0
909 -911 0
910 -911 0
911 -912 0
-239 -913 0
912 -914 0
913 -914 0
914 -915 0
184 -915 0
915 -916 0
-134 -916 0
841 916 -917 0
917 -918 0
-124 -919 0
918 -920 0
919 -920 0
920 -921 0
96 -921 0
-14 -922 0
43 -922 0
922 -923 0
258 -923 0
923 -924 0
247 -924 0
751 -925 0
202 -925 0
925 -926 0
-247 -926 0
924 926 -927 0
-6 -928 0
-8 -928 0
-9 -928 0
12 -928 0
13 -928 0
-15 -928 0
16 -928 0
20 -928 0
-23 -928 0
-24 -928 0
-25 -928 0
27 -928 0
-28 -928 0
31 -928 0
-32 -928 0
33 -928 0
38 -928 0
39 -928 0
-42 -928 0
-46 -928 0
47 -928 0
50 -928 0
52 -928 0
53 -928 0
-54 -928 0
-57 -928 0
58 -928 0
62 -928 0
-63 -928 0
65 -928 0
70 -928 0
71 -928 0
-73 -928 0
-74 -928 0
-75 -928 0
-76 -928 0
77 -928 0
78 -928 0
79 -928 0
-80 -928 0
84 -928 0
87 -928 0
90 -928 0
92 -928 0
93 -928 0
-95 -928 0
-97 -928 0
101 -928 0
-102 -928 0
103 -928 0
106 -928 0
-113 -928 0
114 -928 0
-115 -928 0
116 -928 0
-117 -928 0
-118 -928 0
120 -928 0
-121 -928 0
122 -928 0
125 -928 0
-127 -928 0
-129 -928 0
-130 -928 0
133 -928 0
-135 -928 0
-138 -928 0
-140 -928 0
141 -928 0
142 -928 0
143 -928 0
-144 -928 0
-147 -928 0
-148 -928 0
-151 -928 0
-155 -928 0
156 -928 0
-159 -928 0
-160 -928 0
161 -928 0
163 -928 0
164 -928 0
-167 -928 0
171 -928 0
172 -928 0
175 -928 0
-177 -928 0
-179 -928 0
-180 -928 0
-182 -928 0
183 -928 0
185 -928 0
189 -928 0
-191 -928 0
-192 -928 0
-195 -928 0
196 -928 0
-198 -928 0
201 -928 0
204 -928 0
206 -928 0
207 -928 0
-209 -928 0
-210 -928 0
-212 -928 0
-216 -928 0
-217 -928 0
218 -928 0
-219 -928 0
220 -928 0
-223 -928 0
-227 -928 0
238 -928 0
240 -928 0
242 -928 0
244 -928 0
-246 -928 0
248 -928 0
-249 -928 0
-250 -928 0
303 -929 0
466 -929 0
753 -929 0
754 -929 0
715 -930 0
363 -930 0
747 -930 0
927 -930 0
419 -930 0
928 -930 0
929 -930 0
930 -931 0
931 -932 0
932 -933 0
-72 -933 0
41 -934 0
174 -934 0
933 -935 0
934 -935 0
935 -936 0
162 -937 0
-239 -937 0
936 -938 0
937 -938 0
938 -939 0
184 -939 0
939 -940 0
940 -941 0
-134 -941 0
-29 -942 0
36 -942 0
941 -943 0
942 -943 0
943 -944 0
944 -945 0
945 -946 0
946 -947 0
-96 -947 0
948 -949 0
-203 -950 0
951 0
1 0
-4 0
-11 0
-22 0
30 0
35 0
-37 0
-44 0
-45 0
49 0
51 0
55 0
-60 0
-69 0
82 0
-85 0
-94 0
-99 0
100 0
-107 0
108 0
110 0
112 0
-119 0
-123 0
-126 0
-139 0
145 0
-149 0
150 0
-152 0
-153 0
-157 0
-158 0
-166 0
-168 0
-176 0
-181 0
186 0
-193 0
200 0
-211 0
221 0
222 0
-224 0
225 0
-226 0
-229 0
232 0
233 0
236 0
-949 950 0
-947 948 0
-945 946 0
-944 945 0
-942 943 0
-937 938 0
-934 935 0
-930 931 0
-929 930 0
-926 927 0
-925 926 0
-924 927 0
-923 924 0
-922 923 0
-920 921 0
-916 917 0
-915 916 0
-912 914 0
-601 603 0
-487 488 0
-485 486 0
-484 486 0
-132 687 0
-482 483 0
77 477 502 525 528 817 903 0
-304 308 400 407 440 536 600 872 885 0
-725 727 0
-476 479 499 521 533 627 656 0
-590 592 0
-475 476 0
63 300 355 396 459 556 591 736 928 0
-939 940 0
-589 590 0
-473 560 0
-471 472 0
-469 470 0
-468 469 0
-467 468 0
-57 693 817 0
-465 468 0
-464 470 0
-239 464 474 488 0
-841 917 0
-116 687 752 928 0
148 463 467 478 485 491 752 903 928 0
-777 778 0
-462 472 0
-13 319 703 752 928 0
-591 592 678 0
183 461 554 676 0
113 319 752 817 866 875 887 928 0
-113 687 869 0
-457 458 0
-455 456 642 669 0
-450 451 0
33 273 284 459 552 813 0
-943 944 0
-241 752 0
-775 776 0
-446 447 0
-445 446 655 662 0
-674 675 0
-444 448 0
-443 444 0
-673 674 0
-825 827 0
-658 674 0
25 752 826 903 928 0
-441 442 0
-300 309 0
-671 672 0
-696 697 0
-21 292 463 466 474 487 718 735 798 903 0
-812 813 0
-434 436 613 0
-460 461 0
156 433 452 0
12 860 887 0
-432 433 0
-430 432 0
-428 429 0
-426 427 0
-656 657 0
-422 423 514 627 637 0
-420 422 0
-418 419 0
-480 509 0
-857 862 0
243 418 431 457 647 670 0
-36 339 702 767 942 0
-414 415 0
-413 414 0
-407 408 0
-252 253 0
-405 415 0
179 403 407 481 600 605 659 752 817 928 0
-579 582 0
-6 403 409 481 608 625 659 0
-397 398 0
-621 622 0
-396 397 595 0
-935 936 0
-584 586 0
-392 393 0
-391 392 0
199 904 0
-389 393 460 553 675 0
-387 389 0
-67 693 0
-383 384 0
71 331 700 826 0
-382 384 0
-379 380 0
-374 375 460 557 679 0
-373 376 0
-370 371 0
-292 295 0
-46 370 378 573 597 752 817 903 0
-367 368 0
180 300 928 0
218 375 459 556 680 0
-699 701 0
-58 752 826 903 928 0
-364 365 0
-897 899 0
-355 357 0
-378 380 0
-96 354 921 0
-504 505 0
-351 353 0
-325 326 0
-350 351 0
-134 349 708 841 0
-347 348 0
-631 636 0
-345 346 0
-817 824 0
-344 345 0
-722 723 0
-32 405 444 483 538 601 605 661 853 0
239 300 469 475 493 752 837 913 937 0
111 687 0
-138 331 703 903 0
-20 342 372 594 752 817 903 928 0
-29 341 830 903 0
-340 341 0
103 337 685 826 903 0
-369 371 597 0
-275 276 0
-335 336 0
-333 335 0
-343 344 0
242 333 703 903 0
-332 333 0
-852 853 0
228 361 367 391 459 552 587 817 0
-566 569 683 0
-381 382 0
-327 329 0
-329 330 0
-779 780 0
-328 329 0
-427 430 0
-927 930 0
-917 918 0
205 328 746 0
-302 308 722 0
-470 472 482 543 613 650 672 0
163 328 687 817 903 0
-824 825 0
-421 422 0
-433 434 0
-770 772 0
-74 328 817 903 0
-678 679 0
-326 327 0
-801 802 0
-182 480 522 616 0
-324 326 0
-479 480 0
-319 320 0
-323 324 0
-609 610 0
-687 691 0
65 322 370 373 374 612 817 903 0
-337 338 0
-321 323 0
-129 321 817 0
-782 783 0
-689 690 0
-803 824 0
-496 497 0
-320 321 0
-371 372 0
-437 462 0
-227 319 826 903 0
-280 281 0
-918 920 0
206 319 831 903 0
-417 419 0
-451 458 0
-423 424 0
19 328 687 712 817 0
-179 319 406 903 0
79 364 367 383 388 581 585 826 903 0
-404 405 0
-735 736 0
-755 756 0
6 300 411 610 625 752 831 903 928 0
184 347 705 0
-354 781 0
-92 300 400 413 439 446 477 504 532 539 604 624 662 752 839 903 928 0
195 264 268 567 752 928 0
-845 846 0
66 300 703 753 817 0
-25 300 687 0
88 322 703 754 817 900 0
135 319 752 928 0
-533 534 0
-889 890 0
-256 257 0
-409 412 0
-869 876 0
61 300 0
-448 460 0
-9 687 888 0
-692 694 0
57 300 752 903 928 0
-52 300 752 839 883 928 0
-402 404 438 482 0
-637 638 0
20 398 459 556 591 595 0
-873 874 0
161 300 903 0
-553 554 0
48 300 416 903 0
46 300 379 386 573 576 584 928 0
-394 395 0
16 301 0
-313 314 0
-366 369 0
-180 687 752 817 903 0
-361 362 390 576 0
-695 697 0
-77 300 471 481 497 527 542 612 649 752 928 0
172 441 445 519 547 730 0
-331 332 0
-80 300 355 396 459 556 591 0
-50 300 687 752 785 787 788 903 928 0
-400 402 0
-334 335 0
-576 577 0
38 687 903 0
-636 637 666 0
-902 908 0
-23 300 687 752 903 0
-359 365 0
178 510 0
-14 300 687 749 903 0
-187 688 0
-278 280 0
27 459 552 0
-662 663 0
-247 300 562 924 0
39 300 687 903 0
54 300 565 682 752 928 0
-410 411 683 0
142 300 700 817 0
-521 522 0
-12 300 687 752 839 850 859 928 0
-458 460 0
-156 300 425 449 452 454 556 624 637 666 752 817 903 928 0
-253 257 0
-357 371 594 0
-298 299 0
-377 378 0
-115 277 817 0
-527 529 0
197 298 0
-356 357 0
-490 491 0
-174 752 826 910 934 0
-75 300 565 682 797 799 858 860 887 0
-563 564 0
-266 267 0
-795 796 0
-606 607 0
-363 364 580 930 0
-183 319 437 515 612 654 752 817 903 928 0
-259 261 0
-789 790 0
-877 878 0
-16 301 477 498 525 528 752 826 903 928 0
-33 273 281 420 426 640 752 808 810 903 928 0
-244 319 752 928 0
-884 886 0
-290 291 0
-466 467 475 490 716 929 0
-741 743 0
249 304 752 817 868 870 928 0
-288 291 0
87 334 703 826 905 0
-284 285 0
-228 300 358 360 361 381 574 903 0
47 274 0
43 300 687 750 817 903 0
-314 315 0
-411 412 0
-84 752 818 928 0
-791 794 0
97 300 370 377 598 752 817 903 928 0
216 752 834 903 928 0
-792 793 0
-102 300 561 0
-815 816 0
-491 492 0
134 774 916 941 0
21 294 465 466 802 0
-512 513 0
-412 413 446 479 504 521 533 539 0
185 300 421 429 459 552 643 815 0
-353 354 0
-781 782 0
-435 436 514 653 0
-582 583 0
-786 796 0
-408 413 446 479 504 521 533 539 602 609 627 656 662 0
-871 874 0
-384 385 0
-124 296 741 0
-250 253 819 900 0
-528 529 0
-909 911 0
42 687 752 906 928 0
-117 292 293 477 484 498 535 629 658 797 0
-309 310 0
-697 698 0
-28 267 689 0
-40 300 0
247 563 682 752 817 903 926 0
133 306 687 0
-315 317 0
-31 300 752 928 0
-286 287 0
-76 300 703 0
-133 306 826 903 928 0
-688 690 0
-571 572 0
-914 915 0
-202 258 687 752 817 903 925 0
-721 722 0
104 251 0
-136 903 0
-760 762 0
18 300 565 682 744 817 898 0
-486 487 0
23 817 928 0
196 300 559 624 630 633 826 903 0
-499 501 0
-610 611 0
-358 359 0
-694 695 0
53 826 910 0
-299 309 0
-360 363 0
-541 543 0
-809 816 0
-653 654 0
-267 272 0
8 703 752 826 848 928 0
-380 382 388 0
-663 664 0
-274 275 278 283 0
-798 803 0
-352 353 0
-148 300 465 478 484 489 817 0
-452 453 640 0
-372 399 0
-316 317 0
-620 623 0
-401 402 0
-291 309 0
162 324 703 0
-339 340 0
-312 313 0
-440 441 0
-906 907 0
-216 319 565 682 0
-529 530 621 0
32 300 414 447 477 505 532 540 602 624 664 752 826 864 887 928 0
-685 686 0
-240 693 752 928 0
-285 286 289 0
-217 288 817 868 871 0
-888 889 0
250 256 268 703 752 819 901 928 0
-933 935 0
-587 588 0
-43 748 922 0
-406 408 0
-141 276 278 282 687 752 817 928 0
-276 277 0
-804 805 898 0
-114 696 752 817 843 847 928 0
-63 356 723 817 903 0
-519 520 0
-731 735 0
-269 270 0
-628 629 0
-270 271 0
151 300 703 752 928 0
-746 747 0
-738 739 741 0
-481 482 0
-310 312 0
-910 911 0
-477 479 521 0
-62 752 817 903 928 0
144 319 471 512 517 612 635 645 752 817 903 928 0
-272 309 0
-346 347 0
-308 309 0
140 316 687 752 817 855 928 0
-634 635 0
-461 462 0
-72 336 699 0
-854 857 0
-698 699 0
-277 287 0
170 300 0
-78 300 687 752 928 0
-626 627 0
-204 254 428 453 615 752 817 903 928 0
171 328 903 0
-79 300 359 383 387 579 584 928 0
-632 634 0
182 300 471 508 550 612 615 616 621 649 752 817 903 928 0
13 817 903 0
-643 644 0
-398 399 0
-509 514 0
-322 323 0
-622 623 0
141 279 282 903 0
-651 652 0
-155 319 817 903 0
-751 756 925 0
-188 300 693 709 713 817 903 0
-283 284 0
-810 814 0
-8 300 846 0
-843 844 0
-281 285 0
115 286 289 687 752 903 928 0
-287 288 0
-330 332 0
-198 319 703 851 854 887 0
116 300 817 903 0
210 319 410 752 826 903 928 0
-118 300 568 785 791 0
-569 570 0
-578 579 0
-218 342 370 373 614 752 826 903 928 0
-647 648 0
125 300 703 817 903 0
-796 824 0
-913 914 0
-438 442 0
-143 300 687 752 928 0
-415 436 0
-526 531 0
-905 907 0
-500 501 0
-296 297 690 739 0
-478 479 499 521 534 628 657 0
-655 656 0
-279 280 0
-376 397 0
-191 300 826 903 0
-603 604 0
-89 314 0
201 300 693 0
190 362 367 394 459 552 577 587 817 0
-783 784 0
-831 832 0
-548 549 0
-706 707 0
209 300 565 682 752 789 792 903 928 0
-870 871 0
14 748 749 922 0
-425 434 0
-946 947 0
-106 319 703 752 842 928 0
-223 300 703 817 0
5 903 0
-338 339 0
-362 363 0
-238 300 752 928 0
-393 394 0
-246 300 687 903 0
-375 376 0
-125 752 928 0
15 305 612 632 645 761 866 872 887 928 0
-103 572 752 928 0
-243 300 417 451 556 624 639 668 826 903 0
-456 457 0
-342 343 0
-403 404 443 536 0
-303 308 690 716 732 929 0
-921 948 0
245 300 0
-38 319 752 817 928 0
-453 455 0
-210 403 409 410 481 0
-887 890 0
-730 731 0
-492 493 0
-868 869 0
117 293 471 481 544 612 651 673 752 800 850 928 0
2 260 0
-306 308 755 0
188 709 0
-301 308 472 482 496 527 543 613 650 672 0
248 319 687 0
-818 823 907 0
-399 436 0
-311 312 0
-511 513 0
-177 302 703 725 729 0
-447 448 0
-879 880 0
-449 450 0
-732 734 0
174 300 571 682 0
-574 575 0
-294 295 0
-557 558 0
41 311 687 817 0
-15 305 868 0
-368 369 0
-305 308 569 626 630 633 655 823 870 0
10 307 0
-454 455 0
58 319 565 682 0
-307 308 0
-219 330 817 903 0
-542 543 0
-289 290 0
-771 772 0
62 328 565 682 0
-282 283 0
-903 908 0
-474 476 0
-938 939 0
-583 590 0
-349 350 0
-65 374 752 928 0
-759 760 0
36 828 903 0
-895 896 0
-53 300 687 752 928 0
-483 506 0
-71 758 903 928 0
-265 266 0
-838 840 0
-645 646 669 0
-874 875 0
-395 397 514 653 0
-268 270 0
-885 886 0
-3 903 0
-459 460 0
-551 553 0
-386 387 0
-262 265 0
-675 676 0
-48 416 418 431 456 645 0
-7 319 0
-488 494 0
-677 678 0
-385 395 0
-73 319 687 0
-618 619 0
-95 319 703 0
-892 908 0
-258 259 263 269 923 0
-431 432 0
-336 338 0
202 258 260 0
-859 861 0
-442 443 660 0
-686 691 0
-341 343 0
-716 717 0
-207 300 687 752 928 0
114 319 842 843 0
-612 613 0
-215 300 366 381 390 583 738 742 817 903 0
-793 794 0
122 319 820 895 0
-936 938 0
-585 586 0
-317 318 0
-493 494 0
-834 835 0
-318 320 0
-494 495 0
177 302 726 817 903 928 0
-495 496 0
-497 503 0
-498 499 0
-501 502 0
-502 503 0
-503 504 0
-505 506 0
-506 507 523 0
-185 420 427 641 752 809 903 928 0
-507 508 0
-508 509 0
-510 511 0
-681 684 0
-144 511 517 631 0
-723 737 0
189 319 566 826 903 0
-513 514 516 523 0
-190 300 358 360 385 575 903 0
-514 515 0
-515 555 0
-161 687 752 839 928 0
-517 518 546 626 655 0
-209 785 787 0
-518 519 0
-520 521 0
-523 524 0
-70 300 687 752 928 0
-524 548 0
-525 526 619 0
-640 641 0
-88 754 0
130 316 687 752 928 0
-532 533 609 0
-785 786 0
83 903 0
-534 535 0
68 303 718 733 817 0
-535 545 0
-659 660 0
-536 537 0
-537 538 0
-539 540 0
204 252 254 454 477 617 0
-540 541 0
-882 883 0
-543 544 0
-544 545 0
-660 661 0
155 693 752 928 0
-547 548 0
-552 553 675 0
78 817 903 0
-27 319 435 612 752 817 903 928 0
-823 824 0
-554 555 0
-670 671 0
-295 309 489 0
-556 558 0
-558 559 0
215 368 391 459 552 589 738 0
-559 560 0
-560 570 0
-561 562 0
80 356 752 817 903 928 0
-562 564 0
-220 300 703 717 732 817 928 0
-564 570 0
-729 730 0
52 565 682 891 0
212 565 682 752 928 0
-189 566 761 928 0
90 300 687 0
-567 569 683 823 0
-436 437 0
-679 680 0
118 568 752 793 928 0
-568 569 683 880 889 0
-439 440 537 0
-614 681 0
220 719 733 903 0
-570 571 0
-572 686 0
-708 775 0
-257 266 0
-832 833 0
-928 930 0
-573 574 580 585 0
-575 578 0
-577 578 0
-931 932 0
92 401 439 606 0
-565 570 0
-580 581 0
-932 933 0
-232 783 949 0
-581 582 0
-919 920 0
-97 377 379 386 593 0
-586 588 0
-588 589 0
-184 770 838 915 939 0
-592 593 0
-365 366 756 0
-593 599 0
-940 941 0
-594 596 0
-595 596 0
-941 943 0
101 319 831 903 0
-596 597 0
-597 598 0
240 300 817 903 0
-598 599 0
-599 613 0
-429 430 0
-24 804 0
-600 601 0
-602 603 0
-604 607 0
-839 840 0
-605 606 0
-826 827 0
-948 949 0
-607 608 0
-844 845 0
-608 611 0
-847 848 0
-249 304 401 406 605 866 884 0
-611 613 650 0
-848 849 0
-613 614 0
-293 294 485 490 799 863 889 0
-849 908 0
-615 618 0
175 342 877 885 0
-715 756 930 0
-616 617 0
-617 618 0
-619 620 0
-623 627 656 0
-624 627 656 0
-629 652 0
-797 798 0
120 319 687 0
-630 631 0
-633 634 0
124 296 298 742 919 0
-635 636 0
-638 639 0
-639 648 0
-641 644 0
213 817 0
-642 643 0
-644 646 0
-646 647 0
-147 724 729 0
-648 650 0
192 300 471 481 495 500 530 542 612 622 649 752 817 928 0
-745 746 0
-121 348 706 839 0
-649 650 672 0
-808 809 0
-650 651 0
-652 653 0
-799 801 0
-654 677 0
234 817 0
-530 531 0
-911 912 0
-657 658 0
-68 303 903 0
-766 767 0
-908 909 0
-416 417 450 557 626 638 655 667 823 0
-661 665 0
-664 665 0
-666 667 0
-667 668 0
-811 812 0
-463 464 0
-159 817 903 0
-668 671 0
-230 687 0
-813 814 0
-419 423 756 930 0
-669 670 0
-676 677 0
-680 681 0
-109 903 0
-682 684 0
84 322 687 818 0
-683 684 0
-273 275 421 428 642 0
-684 685 0
31 687 817 903 0
-160 687 822 0
-861 862 0
-171 687 752 817 928 0
-774 775 0
-672 673 0
-833 835 0
227 687 752 928 0
-739 740 0
-516 520 0
-896 908 0
238 687 834 903 0
-690 691 0
-691 692 0
129 692 752 903 928 0
-122 693 752 820 893 928 0
-693 694 0
-700 701 0
-196 473 612 632 645 752 928 0
-900 902 0
-701 702 0
-702 704 0
121 761 903 928 0
-248 752 817 903 928 0
-271 272 0
-904 907 0
74 703 761 928 0
-86 703 0
-101 703 752 928 0
-814 815 0
-131 703 0
-531 533 0
-135 703 817 903 0
-752 756 0
-297 299 0
-167 703 805 811 903 0
-893 896 0
191 703 752 928 0
-205 703 740 817 903 0
-875 876 0
-720 722 0
-206 703 752 928 0
-820 823 0
219 703 761 928 0
217 290 700 761 866 873 887 928 0
-703 704 0
96 780 947 0
-704 705 0
-705 707 0
244 706 817 903 0
-707 708 0
-19 710 712 0
-853 865 0
-710 711 0
-169 711 0
-711 715 0
-713 714 0
-714 715 0
-717 720 0
-718 719 0
-47 274 279 687 752 817 903 928 0
-719 720 0
-724 725 0
-727 728 0
-728 731 0
-733 734 0
-881 882 0
-734 735 0
-736 737 0
-737 756 0
-18 739 744 897 0
-740 747 0
-742 743 0
-192 477 500 526 620 903 0
-743 745 0
-744 745 0
-794 795 0
-747 756 930 0
-748 751 0
-749 750 823 0
-42 300 817 906 0
-750 751 0
-39 752 817 928 0
246 752 817 928 0
-840 841 0
56 752 0
73 752 817 903 928 0
-858 859 0
75 752 800 850 858 928 0
-555 558 0
76 752 817 903 928 0
-862 863 0
-87 752 905 928 0
-90 752 826 903 928 0
-120 752 817 903 928 0
-907 908 0
-261 262 0
138 752 817 928 0
-788 789 792 0
-142 752 903 928 0
-163 752 928 0
-201 752 817 903 928 0
223 752 903 928 0
-66 753 903 0
-754 755 901 929 0
-756 757 0
198 752 817 851 856 928 0
-757 759 0
-846 849 0
-758 759 0
-242 760 825 928 0
-776 778 0
34 834 0
-260 261 0
-835 836 0
95 761 831 903 928 0
-761 762 0
-130 826 903 0
-64 351 0
-898 899 0
-763 765 0
-765 766 0
-764 765 0
-162 768 834 910 937 0
-41 761 910 934 0
-901 902 0
-549 550 0
72 766 834 903 933 0
-348 349 0
137 768 0
-768 769 0
-769 770 0
-827 828 0
-522 551 0
-772 773 0
-254 255 269 424 426 449 507 549 621 637 640 666 0
-829 830 0
237 903 0
-212 300 826 903 0
-550 551 0
-773 774 0
-255 256 0
-830 832 0
29 777 942 0
-778 779 0
-263 264 0
-836 837 0
-780 781 0
-388 389 0
119 782 919 944 0
-538 541 0
-762 763 0
24 300 703 752 804 806 812 897 928 0
-627 628 0
-787 790 0
-867 878 0
50 788 0
-790 791 0
-878 880 0
-127 821 903 0
-800 801 0
-890 891 0
-802 803 0
154 903 0
-805 807 0
-806 807 0
-807 808 810 0
-816 824 0
17 817 0
-54 817 903 0
106 817 844 847 0
143 817 903 0
-151 817 903 0
-489 492 0
173 817 0
194 817 0
-767 769 0
207 817 903 0
-545 546 0
-208 817 0
-819 823 0
-821 823 0
-625 626 655 663 0
-822 823 0
59 826 0
-546 547 0
70 826 903 0
-251 252 0
-665 672 0
-828 829 0
81 834 0
-264 265 0
-837 838 0
159 300 687 752 928 0
-842 845 0
-424 425 0
-140 850 854 855 887 0
164 334 565 682 795 881 887 0
-753 755 929 0
-850 852 0
-472 473 0
-164 752 786 881 928 0
-851 852 0
-709 710 0
-855 856 0
167 300 752 806 811 928 0
-856 857 0
-860 861 0
-172 319 435 438 445 516 524 612 721 728 817 903 928 0
-863 864 0
-712 713 907 0
-864 865 0
-865 880 0
-866 867 0
-175 696 752 817 867 884 928 0
-872 873 0
-876 877 0
-726 727 0
-880 882 0
-883 892 0
-886 890 0
-891 892 0
93 893 894 0
-894 895 0
-195 262 567 903 0
-899 908 0
-390 392 0
-26 903 0
-91 903 0
98 903 0
-105 903 0
128 903 0
-146 903 0
-165 903 0
214 903 0
231 903 0
235 903 0
